param target := 12;
set E := 1 2 3 4 5 6 7 8 9 10 11 12 13 14 15 16 17 18 19 20 21 22 23 24 25 ;
param weight := 
  1  2
  2  -3
  3  -7
  4  22
  5  -1
  6  -14
  7  6
  8  -11
  9  3
  10  -12
  11  20
  12  18
  13  1
  14  12
  15  11
  16  -23
  17  1
  18  -5
  19  -8
  20  12
  21  -24
  22  -18
  23  4
  24  4
  25  22
;
